0
1
2
3
4
49,81
6
6,65
67,145
9
10
11
12
7,12
14
14,147
16
42
43
43,82,105
44
45
46
47
8,44,45,47
17,18,19,20,21,22,23,24,25,26,27,28,29,30,31,32,141
33,34,35,36,37,38,39,40,41
142
2,49
50
51
52
55
56
53,54
58
59
59,62
60
62
66,110
42,64,79
42,64
61,63
50,123
68
69,71
72,73
78
75,76,77
51,52
51,140
81
82,139
82
49,51,57
83
84,86
85,147
83,87
88
88
68,89
70,89
56,90
92,94,95
93
9,10
10,117
10,119
117,118,119,121
96
97
117
98,100
98,120
118
99,120
9,119
121
81,96
11,90
60,90
90,143
103
103,122
103,137
104
0,104
105
107,108
15,106
109
59,109,144
110
116,119
112
113,114
116
117
119
119
122
101,102,111
3,104
91
124,147
125
78,125
126
127
128,130
16,133
131
16,131
129,131
132
132,138
133
134
137
138
126
127
13,74
140
5,80,135,136
144
48
56,146
16,148
58,149
112,149
134,149
55,150
115,149
